nzones = 0;
nturb = 100;

R = 38.5;

w = 3000;
h = 3000;

zx = [];
zy = [];
zwidth = [];
zheight = [];

init_x = [ 0, 0, 0, 0, 0, 0, 0, 0, 0, 0, 333, 333, 333, 333, 333, 333, 333, 333, 333, 333, 667, 667, 667, 667, 667, 667, 667, 667, 667, 667, 1000, 1000, 1000, 1000, 1000, 1000, 1000, 1000, 1000, 1000, 1333, 1333, 1333, 1333, 1333, 1333, 1333, 1333, 1333, 1333, 1667, 1667, 1667, 1667, 1667, 1667, 1667, 1667, 1667, 1667, 2000, 2000, 2000, 2000, 2000, 2000, 2000, 2000, 2000, 2000, 2333, 2333, 2333, 2333, 2333, 2333, 2333, 2333, 2333, 2333, 2667, 2667, 2667, 2667, 2667, 2667, 2667, 2667, 2667, 2667, 3000, 3000, 3000, 3000, 3000, 3000, 3000, 3000, 3000, 3000 ];
init_y = [ 0, 333, 667, 1000, 1333, 1667, 2000, 2333, 2667, 3000, 0, 333, 667, 1000, 1333, 1667, 2000, 2333, 2667, 3000, 0, 333, 667, 1000, 1333, 1667, 2000, 2333, 2667, 3000, 0, 333, 667, 1000, 1333, 1667, 2000, 2333, 2667, 3000, 0, 333, 667, 1000, 1333, 1667, 2000, 2333, 2667, 3000, 0, 333, 667, 1000, 1333, 1667, 2000, 2333, 2667, 3000, 0, 333, 667, 1000, 1333, 1667, 2000, 2333, 2667, 3000, 0, 333, 667, 1000, 1333, 1667, 2000, 2333, 2667, 3000, 0, 333, 667, 1000, 1333, 1667, 2000, 2333, 2667, 3000, 0, 333, 667, 1000, 1333, 1667, 2000, 2333, 2667, 3000 ];
